unsat
(:added-eqs                   211057
 :arith-eq-adapter            1554
 :arith-bound-propagations-lp 14521
 :arith-conflicts             31
 :arith-diseq                 12541
 :arith-fixed-eqs             7679
 :arith-lower                 15325
 :arith-make-feasible         7728
 :arith-max-columns           601
 :arith-max-rows              267
 :arith-offset-eqs            7952
 :arith-upper                 17805
 :binary-propagations         611930
 :conflicts                   2971
 :decisions                   186656
 :del-clause                  5937
 :elim-unconstrained          2
 :max-memory                  27.04
 :memory                      21.22
 :minimized-lits              4351
 :mk-bool-var                 8302
 :mk-clause                   6612
 :mk-clause-binary            8026
 :num-allocs                  32117090
 :num-checks                  1
 :propagations                785531
 :restarts                    24
 :rlimit-count                8565834
 :time                        3.52
 :total-time                  3.65)
